% Logging successfully configured
%%%mzn-stat: initTime=0.02652177
%%%mzn-stat: objective=728
%%%mzn-stat: nodes=4268
%%%mzn-stat: restarts=0
%%%mzn-stat: peakDepth=410
%%%mzn-stat: solveTime=0.135721243
%%%mzn-stat: variables=806
%%%mzn-stat: propagators=567
%%%mzn-stat: failures=495
%%%mzn-stat: propagations=33625
%%%mzn-stat: nogoods=495
%%%mzn-stat: numAtomicConstraintsPropagated=0
%%%mzn-stat: allDifferentNumber1TotalHallSetSize=2294
%%%mzn-stat: allDifferentNumber1NumberOfConflicts=486
%%%mzn-stat: allDifferentNumber1MaxHallSetSize=42
%%%mzn-stat: allDifferentNumber1PropagationsTotal=6779
%%%mzn-stat: allDifferentNumber1PropagationsThatFoundConflict=486
%%%mzn-stat: circuitNumber2PropagationsThatFoundConflict=1
%%%mzn-stat: circuitNumber2TotalFixedEdgesAtConflict=35
%%%mzn-stat: circuitNumber2NumberOfConflicts=1
%%%mzn-stat: circuitNumber2PropagationsThatPruned=420
%%%mzn-stat: circuitNumber2PropagationsTotal=4199
%%%mzn-stat: AverageConflictSize=4.862626262626263
%%%mzn-stat: NumUnitNogoodsLearned=0
%%%mzn-stat: AverageLearnedNogoodLength=10.741414141414142
%%%mzn-stat: AverageBacktrackAmount=0
%%%mzn-stat: AverageLbd=9.753535353535353
%%%mzn-stat: 2AutonomousSearchNumBackupCalled=370
%%%mzn-stat: 2AutonomousSearchNumPredicatesRemoved=0
%%%mzn-stat: 2AutonomousSearchNumCalls=371
%%%mzn-stat: 2AutonomousSearchNumPredicatesAdded=770
%%%mzn-stat: 2AutonomousSearchAverageSizeOfHeap=2.0754716981132075
%%%mzn-stat: 2AutonomousSearchNumAssignedPredicatesEncountered=770
%%%mzn-stat-end
maxleg = 728;
succ = array1d(1..50,[8, 4, 6, 10, 2, 5, 3, 26, 7, 14, 21, 20, 16, 27, 17, 9, 18, 24, 13, 40, 1, 12, 11, 34, 30, 25, 50, 22, 35, 48, 32, 41, 19, 45, 28, 43, 38, 39, 49, 42, 33, 44, 15, 47, 46, 31, 23, 36, 29, 37]);
% time elapsed: 7.84 s
----------
%%%mzn-stat: initTime=0.02652177
%%%mzn-stat: objective=374
%%%mzn-stat: nodes=4910
%%%mzn-stat: restarts=0
%%%mzn-stat: peakDepth=410
%%%mzn-stat: solveTime=0.151698979
%%%mzn-stat: variables=806
%%%mzn-stat: propagators=567
%%%mzn-stat: failures=555
%%%mzn-stat: propagations=36938
%%%mzn-stat: nogoods=555
%%%mzn-stat: numAtomicConstraintsPropagated=0
%%%mzn-stat: allDifferentNumber1TotalHallSetSize=2568
%%%mzn-stat: allDifferentNumber1NumberOfConflicts=543
%%%mzn-stat: allDifferentNumber1MaxHallSetSize=42
%%%mzn-stat: allDifferentNumber1PropagationsTotal=7284
%%%mzn-stat: allDifferentNumber1PropagationsThatFoundConflict=543
%%%mzn-stat: circuitNumber2PropagationsThatFoundConflict=1
%%%mzn-stat: circuitNumber2TotalFixedEdgesAtConflict=35
%%%mzn-stat: circuitNumber2NumberOfConflicts=1
%%%mzn-stat: circuitNumber2PropagationsThatPruned=437
%%%mzn-stat: circuitNumber2PropagationsTotal=4490
%%%mzn-stat: AverageConflictSize=4.960360360360361
%%%mzn-stat: NumUnitNogoodsLearned=0
%%%mzn-stat: AverageLearnedNogoodLength=11.153153153153154
%%%mzn-stat: AverageBacktrackAmount=0
%%%mzn-stat: AverageLbd=10.104504504504504
%%%mzn-stat: 2AutonomousSearchNumBackupCalled=720
%%%mzn-stat: 2AutonomousSearchNumPredicatesRemoved=0
%%%mzn-stat: 2AutonomousSearchNumCalls=722
%%%mzn-stat: 2AutonomousSearchNumPredicatesAdded=1263
%%%mzn-stat: 2AutonomousSearchAverageSizeOfHeap=2.412742382271468
%%%mzn-stat: 2AutonomousSearchNumAssignedPredicatesEncountered=1742
%%%mzn-stat-end
maxleg = 374;
succ = array1d(1..50,[8, 4, 6, 10, 2, 5, 3, 26, 7, 14, 21, 20, 16, 27, 17, 19, 18, 24, 25, 22, 23, 28, 40, 1, 30, 11, 50, 35, 12, 31, 46, 41, 13, 15, 32, 45, 38, 39, 49, 42, 33, 44, 36, 47, 48, 43, 9, 34, 29, 37]);
% time elapsed: 7.86 s
----------
%%%mzn-stat: initTime=0.02652177
%%%mzn-stat: objective=353
%%%mzn-stat: nodes=8418
%%%mzn-stat: restarts=0
%%%mzn-stat: peakDepth=410
%%%mzn-stat: solveTime=0.415076393
%%%mzn-stat: variables=806
%%%mzn-stat: propagators=567
%%%mzn-stat: failures=1987
%%%mzn-stat: propagations=83876
%%%mzn-stat: nogoods=1987
%%%mzn-stat: numAtomicConstraintsPropagated=0
%%%mzn-stat: allDifferentNumber1TotalHallSetSize=4008
%%%mzn-stat: allDifferentNumber1NumberOfConflicts=1017
%%%mzn-stat: allDifferentNumber1MaxHallSetSize=42
%%%mzn-stat: allDifferentNumber1PropagationsTotal=13481
%%%mzn-stat: allDifferentNumber1PropagationsThatFoundConflict=1017
%%%mzn-stat: circuitNumber2PropagationsThatFoundConflict=951
%%%mzn-stat: circuitNumber2TotalFixedEdgesAtConflict=45329
%%%mzn-stat: circuitNumber2NumberOfConflicts=951
%%%mzn-stat: circuitNumber2PropagationsThatPruned=993
%%%mzn-stat: circuitNumber2PropagationsTotal=8912
%%%mzn-stat: AverageConflictSize=17.48465022647207
%%%mzn-stat: NumUnitNogoodsLearned=0
%%%mzn-stat: AverageLearnedNogoodLength=22.19124308002013
%%%mzn-stat: AverageBacktrackAmount=0
%%%mzn-stat: AverageLbd=18.84398590840463
%%%mzn-stat: 2AutonomousSearchNumBackupCalled=1074
%%%mzn-stat: 2AutonomousSearchNumPredicatesRemoved=0
%%%mzn-stat: 2AutonomousSearchNumCalls=1077
%%%mzn-stat: 2AutonomousSearchNumPredicatesAdded=2102
%%%mzn-stat: 2AutonomousSearchAverageSizeOfHeap=2.840297121634169
%%%mzn-stat: 2AutonomousSearchNumAssignedPredicatesEncountered=3059
%%%mzn-stat-end
maxleg = 353;
succ = array1d(1..50,[8, 4, 6, 10, 13, 5, 3, 26, 7, 14, 21, 20, 16, 27, 17, 19, 18, 24, 25, 22, 23, 28, 40, 1, 30, 11, 33, 39, 12, 35, 46, 31, 41, 15, 29, 45, 50, 37, 49, 42, 32, 44, 36, 47, 48, 43, 9, 34, 38, 2]);
% time elapsed: 8.12 s
----------
%%%mzn-stat: initTime=0.02652177
%%%mzn-stat: objective=338
%%%mzn-stat: nodes=8814
%%%mzn-stat: restarts=0
%%%mzn-stat: peakDepth=410
%%%mzn-stat: solveTime=0.417899091
%%%mzn-stat: variables=806
%%%mzn-stat: propagators=567
%%%mzn-stat: failures=1987
%%%mzn-stat: propagations=84916
%%%mzn-stat: nogoods=1987
%%%mzn-stat: numAtomicConstraintsPropagated=0
%%%mzn-stat: allDifferentNumber1TotalHallSetSize=4008
%%%mzn-stat: allDifferentNumber1NumberOfConflicts=1017
%%%mzn-stat: allDifferentNumber1MaxHallSetSize=42
%%%mzn-stat: allDifferentNumber1PropagationsTotal=13546
%%%mzn-stat: allDifferentNumber1PropagationsThatFoundConflict=1017
%%%mzn-stat: circuitNumber2PropagationsThatFoundConflict=951
%%%mzn-stat: circuitNumber2TotalFixedEdgesAtConflict=45329
%%%mzn-stat: circuitNumber2NumberOfConflicts=951
%%%mzn-stat: circuitNumber2PropagationsThatPruned=994
%%%mzn-stat: circuitNumber2PropagationsTotal=8952
%%%mzn-stat: AverageConflictSize=17.48465022647207
%%%mzn-stat: NumUnitNogoodsLearned=0
%%%mzn-stat: AverageLearnedNogoodLength=22.19124308002013
%%%mzn-stat: AverageBacktrackAmount=0
%%%mzn-stat: AverageLbd=18.84398590840463
%%%mzn-stat: 2AutonomousSearchNumBackupCalled=1430
%%%mzn-stat: 2AutonomousSearchNumPredicatesRemoved=0
%%%mzn-stat: 2AutonomousSearchNumCalls=1434
%%%mzn-stat: 2AutonomousSearchNumPredicatesAdded=2102
%%%mzn-stat: 2AutonomousSearchAverageSizeOfHeap=3.0516039051603907
%%%mzn-stat: 2AutonomousSearchNumAssignedPredicatesEncountered=4376
%%%mzn-stat-end
maxleg = 338;
succ = array1d(1..50,[8, 4, 6, 10, 13, 5, 3, 26, 7, 14, 21, 20, 16, 27, 17, 19, 18, 24, 25, 22, 23, 28, 40, 1, 30, 11, 33, 39, 12, 35, 46, 31, 41, 15, 29, 48, 50, 37, 49, 42, 32, 44, 36, 47, 34, 43, 9, 45, 38, 2]);
% time elapsed: 8.14 s
----------
%%%mzn-stat: initTime=0.02652177
%%%mzn-stat: objective=317
%%%mzn-stat: nodes=10579
%%%mzn-stat: restarts=0
%%%mzn-stat: peakDepth=410
%%%mzn-stat: solveTime=0.578640666
%%%mzn-stat: variables=806
%%%mzn-stat: propagators=567
%%%mzn-stat: failures=2810
%%%mzn-stat: propagations=111786
%%%mzn-stat: nogoods=2810
%%%mzn-stat: numAtomicConstraintsPropagated=0
%%%mzn-stat: allDifferentNumber1TotalHallSetSize=4449
%%%mzn-stat: allDifferentNumber1NumberOfConflicts=1221
%%%mzn-stat: allDifferentNumber1MaxHallSetSize=42
%%%mzn-stat: allDifferentNumber1PropagationsTotal=16658
%%%mzn-stat: allDifferentNumber1PropagationsThatFoundConflict=1221
%%%mzn-stat: circuitNumber2PropagationsThatFoundConflict=1570
%%%mzn-stat: circuitNumber2TotalFixedEdgesAtConflict=74926
%%%mzn-stat: circuitNumber2NumberOfConflicts=1570
%%%mzn-stat: circuitNumber2PropagationsThatPruned=1318
%%%mzn-stat: circuitNumber2PropagationsTotal=11191
%%%mzn-stat: AverageConflictSize=19.614946619217083
%%%mzn-stat: NumUnitNogoodsLearned=0
%%%mzn-stat: AverageLearnedNogoodLength=24.641637010676156
%%%mzn-stat: AverageBacktrackAmount=0
%%%mzn-stat: AverageLbd=20.487544483985765
%%%mzn-stat: 2AutonomousSearchNumBackupCalled=1785
%%%mzn-stat: 2AutonomousSearchNumPredicatesRemoved=0
%%%mzn-stat: 2AutonomousSearchNumCalls=1790
%%%mzn-stat: 2AutonomousSearchNumPredicatesAdded=2843
%%%mzn-stat: 2AutonomousSearchAverageSizeOfHeap=3.2162011173184357
%%%mzn-stat: 2AutonomousSearchNumAssignedPredicatesEncountered=5757
%%%mzn-stat-end
maxleg = 317;
succ = array1d(1..50,[8, 4, 6, 10, 13, 5, 3, 26, 7, 14, 21, 20, 16, 27, 17, 19, 18, 24, 25, 22, 23, 28, 40, 34, 30, 11, 33, 39, 12, 35, 46, 31, 41, 1, 29, 43, 50, 37, 49, 42, 32, 44, 15, 47, 36, 48, 9, 45, 38, 2]);
% time elapsed: 8.29 s
----------
%%%mzn-stat: initTime=0.02652177
%%%mzn-stat: objective=308
%%%mzn-stat: nodes=11037
%%%mzn-stat: restarts=0
%%%mzn-stat: peakDepth=410
%%%mzn-stat: solveTime=0.585562276
%%%mzn-stat: variables=806
%%%mzn-stat: propagators=567
%%%mzn-stat: failures=2836
%%%mzn-stat: propagations=113790
%%%mzn-stat: nogoods=2836
%%%mzn-stat: numAtomicConstraintsPropagated=0
%%%mzn-stat: allDifferentNumber1TotalHallSetSize=4545
%%%mzn-stat: allDifferentNumber1NumberOfConflicts=1244
%%%mzn-stat: allDifferentNumber1MaxHallSetSize=42
%%%mzn-stat: allDifferentNumber1PropagationsTotal=16855
%%%mzn-stat: allDifferentNumber1PropagationsThatFoundConflict=1244
%%%mzn-stat: circuitNumber2PropagationsThatFoundConflict=1571
%%%mzn-stat: circuitNumber2TotalFixedEdgesAtConflict=74964
%%%mzn-stat: circuitNumber2NumberOfConflicts=1571
%%%mzn-stat: circuitNumber2PropagationsThatPruned=1333
%%%mzn-stat: circuitNumber2PropagationsTotal=11311
%%%mzn-stat: AverageConflictSize=19.513751763046546
%%%mzn-stat: NumUnitNogoodsLearned=0
%%%mzn-stat: AverageLearnedNogoodLength=24.59379407616361
%%%mzn-stat: AverageBacktrackAmount=0
%%%mzn-stat: AverageLbd=20.429478138222848
%%%mzn-stat: 2AutonomousSearchNumBackupCalled=2133
%%%mzn-stat: 2AutonomousSearchNumPredicatesRemoved=0
%%%mzn-stat: 2AutonomousSearchNumCalls=2139
%%%mzn-stat: 2AutonomousSearchNumPredicatesAdded=3408
%%%mzn-stat: 2AutonomousSearchAverageSizeOfHeap=3.3936418887330526
%%%mzn-stat: 2AutonomousSearchNumAssignedPredicatesEncountered=7259
%%%mzn-stat-end
maxleg = 308;
succ = array1d(1..50,[8, 4, 6, 10, 13, 5, 3, 26, 7, 14, 21, 20, 16, 27, 17, 19, 18, 24, 25, 22, 23, 28, 40, 34, 30, 11, 33, 39, 38, 35, 46, 31, 41, 1, 49, 43, 50, 37, 29, 42, 32, 44, 15, 47, 36, 48, 9, 45, 12, 2]);
% time elapsed: 8.30 s
----------
%%%mzn-stat: initTime=0.02652177
%%%mzn-stat: objective=299
%%%mzn-stat: nodes=11399
%%%mzn-stat: restarts=0
%%%mzn-stat: peakDepth=410
%%%mzn-stat: solveTime=0.587733797
%%%mzn-stat: variables=806
%%%mzn-stat: propagators=567
%%%mzn-stat: failures=2837
%%%mzn-stat: propagations=114872
%%%mzn-stat: nogoods=2837
%%%mzn-stat: numAtomicConstraintsPropagated=0
%%%mzn-stat: allDifferentNumber1TotalHallSetSize=4547
%%%mzn-stat: allDifferentNumber1NumberOfConflicts=1245
%%%mzn-stat: allDifferentNumber1MaxHallSetSize=42
%%%mzn-stat: allDifferentNumber1PropagationsTotal=16922
%%%mzn-stat: allDifferentNumber1PropagationsThatFoundConflict=1245
%%%mzn-stat: circuitNumber2PropagationsThatFoundConflict=1571
%%%mzn-stat: circuitNumber2TotalFixedEdgesAtConflict=74964
%%%mzn-stat: circuitNumber2NumberOfConflicts=1571
%%%mzn-stat: circuitNumber2PropagationsThatPruned=1334
%%%mzn-stat: circuitNumber2PropagationsTotal=11353
%%%mzn-stat: AverageConflictSize=19.507578427916812
%%%mzn-stat: NumUnitNogoodsLearned=0
%%%mzn-stat: AverageLearnedNogoodLength=24.585830102220655
%%%mzn-stat: AverageBacktrackAmount=0
%%%mzn-stat: AverageLbd=20.422982023264012
%%%mzn-stat: 2AutonomousSearchNumBackupCalled=2454
%%%mzn-stat: 2AutonomousSearchNumPredicatesRemoved=0
%%%mzn-stat: 2AutonomousSearchNumCalls=2461
%%%mzn-stat: 2AutonomousSearchNumPredicatesAdded=3410
%%%mzn-stat: 2AutonomousSearchAverageSizeOfHeap=3.559934985778139
%%%mzn-stat: 2AutonomousSearchNumAssignedPredicatesEncountered=8761
%%%mzn-stat-end
maxleg = 299;
succ = array1d(1..50,[8, 4, 6, 10, 13, 5, 3, 26, 7, 14, 21, 20, 16, 27, 17, 19, 18, 24, 25, 22, 23, 28, 40, 34, 30, 11, 33, 39, 38, 35, 46, 31, 41, 1, 49, 43, 50, 37, 29, 42, 32, 44, 15, 47, 48, 45, 9, 36, 12, 2]);
% time elapsed: 8.30 s
----------
%%%mzn-stat: initTime=0.02652177
%%%mzn-stat: objective=294
%%%mzn-stat: nodes=11855
%%%mzn-stat: restarts=0
%%%mzn-stat: peakDepth=410
%%%mzn-stat: solveTime=0.594263266
%%%mzn-stat: variables=806
%%%mzn-stat: propagators=567
%%%mzn-stat: failures=2858
%%%mzn-stat: propagations=117169
%%%mzn-stat: nogoods=2858
%%%mzn-stat: numAtomicConstraintsPropagated=0
%%%mzn-stat: allDifferentNumber1TotalHallSetSize=4624
%%%mzn-stat: allDifferentNumber1NumberOfConflicts=1261
%%%mzn-stat: allDifferentNumber1MaxHallSetSize=42
%%%mzn-stat: allDifferentNumber1PropagationsTotal=17128
%%%mzn-stat: allDifferentNumber1PropagationsThatFoundConflict=1261
%%%mzn-stat: circuitNumber2PropagationsThatFoundConflict=1571
%%%mzn-stat: circuitNumber2TotalFixedEdgesAtConflict=74964
%%%mzn-stat: circuitNumber2NumberOfConflicts=1571
%%%mzn-stat: circuitNumber2PropagationsThatPruned=1347
%%%mzn-stat: circuitNumber2PropagationsTotal=11496
%%%mzn-stat: AverageConflictSize=19.453463960811757
%%%mzn-stat: NumUnitNogoodsLearned=0
%%%mzn-stat: AverageLearnedNogoodLength=24.52694191742477
%%%mzn-stat: AverageBacktrackAmount=0
%%%mzn-stat: AverageLbd=20.36004198740378
%%%mzn-stat: 2AutonomousSearchNumBackupCalled=2779
%%%mzn-stat: 2AutonomousSearchNumPredicatesRemoved=0
%%%mzn-stat: 2AutonomousSearchNumCalls=2787
%%%mzn-stat: 2AutonomousSearchNumPredicatesAdded=3722
%%%mzn-stat: 2AutonomousSearchAverageSizeOfHeap=3.6838894869034804
%%%mzn-stat: 2AutonomousSearchNumAssignedPredicatesEncountered=10267
%%%mzn-stat-end
maxleg = 294;
succ = array1d(1..50,[8, 4, 6, 10, 13, 5, 3, 26, 7, 14, 21, 20, 16, 27, 17, 19, 18, 24, 25, 22, 23, 29, 40, 34, 30, 11, 33, 12, 38, 35, 46, 31, 41, 1, 49, 43, 50, 37, 28, 42, 32, 44, 15, 47, 48, 45, 9, 36, 39, 2]);
% time elapsed: 8.31 s
----------
%%%mzn-stat: initTime=0.02652177
%%%mzn-stat: objective=287
%%%mzn-stat: nodes=12469
%%%mzn-stat: restarts=0
%%%mzn-stat: peakDepth=410
%%%mzn-stat: solveTime=0.603938632
%%%mzn-stat: variables=806
%%%mzn-stat: propagators=567
%%%mzn-stat: failures=2882
%%%mzn-stat: propagations=120639
%%%mzn-stat: nogoods=2882
%%%mzn-stat: numAtomicConstraintsPropagated=0
%%%mzn-stat: allDifferentNumber1TotalHallSetSize=4718
%%%mzn-stat: allDifferentNumber1NumberOfConflicts=1283
%%%mzn-stat: allDifferentNumber1MaxHallSetSize=42
%%%mzn-stat: allDifferentNumber1PropagationsTotal=17540
%%%mzn-stat: allDifferentNumber1PropagationsThatFoundConflict=1283
%%%mzn-stat: circuitNumber2PropagationsThatFoundConflict=1571
%%%mzn-stat: circuitNumber2TotalFixedEdgesAtConflict=74964
%%%mzn-stat: circuitNumber2NumberOfConflicts=1571
%%%mzn-stat: circuitNumber2PropagationsThatPruned=1362
%%%mzn-stat: circuitNumber2PropagationsTotal=11775
%%%mzn-stat: AverageConflictSize=19.352879944482996
%%%mzn-stat: NumUnitNogoodsLearned=0
%%%mzn-stat: AverageLearnedNogoodLength=24.413948646773076
%%%mzn-stat: AverageBacktrackAmount=0
%%%mzn-stat: AverageLbd=20.262317834836917
%%%mzn-stat: 2AutonomousSearchNumBackupCalled=3123
%%%mzn-stat: 2AutonomousSearchNumPredicatesRemoved=0
%%%mzn-stat: 2AutonomousSearchNumCalls=3132
%%%mzn-stat: 2AutonomousSearchNumPredicatesAdded=4032
%%%mzn-stat: 2AutonomousSearchAverageSizeOfHeap=3.759897828863346
%%%mzn-stat: 2AutonomousSearchNumAssignedPredicatesEncountered=11776
%%%mzn-stat-end
maxleg = 287;
succ = array1d(1..50,[8, 4, 6, 10, 13, 5, 3, 26, 7, 14, 21, 22, 16, 27, 17, 19, 18, 24, 25, 29, 23, 20, 40, 34, 30, 11, 33, 12, 38, 35, 46, 31, 41, 1, 49, 43, 50, 37, 28, 42, 32, 44, 15, 47, 48, 45, 9, 36, 39, 2]);
% time elapsed: 8.33 s
----------
%%%mzn-stat: initTime=0.02652177
%%%mzn-stat: objective=278
%%%mzn-stat: nodes=12972
%%%mzn-stat: restarts=0
%%%mzn-stat: peakDepth=410
%%%mzn-stat: solveTime=0.618261688
%%%mzn-stat: variables=806
%%%mzn-stat: propagators=567
%%%mzn-stat: failures=2946
%%%mzn-stat: propagations=123716
%%%mzn-stat: nogoods=2946
%%%mzn-stat: numAtomicConstraintsPropagated=0
%%%mzn-stat: allDifferentNumber1TotalHallSetSize=4889
%%%mzn-stat: allDifferentNumber1NumberOfConflicts=1327
%%%mzn-stat: allDifferentNumber1MaxHallSetSize=42
%%%mzn-stat: allDifferentNumber1PropagationsTotal=17891
%%%mzn-stat: allDifferentNumber1PropagationsThatFoundConflict=1327
%%%mzn-stat: circuitNumber2PropagationsThatFoundConflict=1589
%%%mzn-stat: circuitNumber2TotalFixedEdgesAtConflict=75804
%%%mzn-stat: circuitNumber2NumberOfConflicts=1589
%%%mzn-stat: circuitNumber2PropagationsThatPruned=1376
%%%mzn-stat: circuitNumber2PropagationsTotal=11986
%%%mzn-stat: AverageConflictSize=19.311608961303463
%%%mzn-stat: NumUnitNogoodsLearned=0
%%%mzn-stat: AverageLearnedNogoodLength=24.39918533604888
%%%mzn-stat: AverageBacktrackAmount=0
%%%mzn-stat: AverageLbd=20.20468431771894
%%%mzn-stat: 2AutonomousSearchNumBackupCalled=3450
%%%mzn-stat: 2AutonomousSearchNumPredicatesRemoved=0
%%%mzn-stat: 2AutonomousSearchNumCalls=3460
%%%mzn-stat: 2AutonomousSearchNumPredicatesAdded=4649
%%%mzn-stat: 2AutonomousSearchAverageSizeOfHeap=3.865028901734104
%%%mzn-stat: 2AutonomousSearchNumAssignedPredicatesEncountered=13373
%%%mzn-stat-end
maxleg = 278;
succ = array1d(1..50,[34, 4, 6, 10, 13, 5, 3, 26, 7, 14, 21, 22, 16, 27, 17, 19, 18, 24, 25, 29, 23, 20, 40, 36, 30, 11, 33, 12, 38, 35, 46, 31, 41, 45, 49, 48, 50, 37, 28, 42, 32, 44, 15, 47, 8, 43, 9, 1, 39, 2]);
% time elapsed: 8.34 s
----------
%%%mzn-stat: initTime=0.02652177
%%%mzn-stat: objective=277
%%%mzn-stat: nodes=13418
%%%mzn-stat: restarts=0
%%%mzn-stat: peakDepth=410
%%%mzn-stat: solveTime=0.629138248
%%%mzn-stat: variables=806
%%%mzn-stat: propagators=567
%%%mzn-stat: failures=2996
%%%mzn-stat: propagations=126414
%%%mzn-stat: nogoods=2996
%%%mzn-stat: numAtomicConstraintsPropagated=0
%%%mzn-stat: allDifferentNumber1TotalHallSetSize=5028
%%%mzn-stat: allDifferentNumber1NumberOfConflicts=1363
%%%mzn-stat: allDifferentNumber1MaxHallSetSize=42
%%%mzn-stat: allDifferentNumber1PropagationsTotal=18156
%%%mzn-stat: allDifferentNumber1PropagationsThatFoundConflict=1363
%%%mzn-stat: circuitNumber2PropagationsThatFoundConflict=1598
%%%mzn-stat: circuitNumber2TotalFixedEdgesAtConflict=76211
%%%mzn-stat: circuitNumber2NumberOfConflicts=1598
%%%mzn-stat: circuitNumber2PropagationsThatPruned=1391
%%%mzn-stat: circuitNumber2PropagationsTotal=12141
%%%mzn-stat: AverageConflictSize=19.2239652870494
%%%mzn-stat: NumUnitNogoodsLearned=0
%%%mzn-stat: AverageLearnedNogoodLength=24.354806408544725
%%%mzn-stat: AverageBacktrackAmount=0
%%%mzn-stat: AverageLbd=20.115153538050734
%%%mzn-stat: 2AutonomousSearchNumBackupCalled=3763
%%%mzn-stat: 2AutonomousSearchNumPredicatesRemoved=0
%%%mzn-stat: 2AutonomousSearchNumCalls=3774
%%%mzn-stat: 2AutonomousSearchNumPredicatesAdded=5571
%%%mzn-stat: 2AutonomousSearchAverageSizeOfHeap=3.9864864864864864
%%%mzn-stat: 2AutonomousSearchNumAssignedPredicatesEncountered=15045
%%%mzn-stat-end
maxleg = 277;
succ = array1d(1..50,[34, 4, 6, 10, 13, 5, 3, 26, 7, 14, 21, 28, 16, 27, 17, 19, 18, 24, 25, 22, 23, 29, 40, 36, 30, 11, 33, 39, 38, 35, 46, 31, 41, 45, 49, 48, 50, 37, 20, 42, 32, 44, 15, 47, 8, 43, 9, 1, 12, 2]);
% time elapsed: 8.35 s
----------
%%%mzn-stat: initTime=0.02652177
%%%mzn-stat: objective=273
%%%mzn-stat: nodes=13943
%%%mzn-stat: restarts=0
%%%mzn-stat: peakDepth=410
%%%mzn-stat: solveTime=0.637747015
%%%mzn-stat: variables=806
%%%mzn-stat: propagators=567
%%%mzn-stat: failures=3020
%%%mzn-stat: propagations=129551
%%%mzn-stat: nogoods=3020
%%%mzn-stat: numAtomicConstraintsPropagated=0
%%%mzn-stat: allDifferentNumber1TotalHallSetSize=5090
%%%mzn-stat: allDifferentNumber1NumberOfConflicts=1380
%%%mzn-stat: allDifferentNumber1MaxHallSetSize=42
%%%mzn-stat: allDifferentNumber1PropagationsTotal=18509
%%%mzn-stat: allDifferentNumber1PropagationsThatFoundConflict=1380
%%%mzn-stat: circuitNumber2PropagationsThatFoundConflict=1604
%%%mzn-stat: circuitNumber2TotalFixedEdgesAtConflict=76493
%%%mzn-stat: circuitNumber2NumberOfConflicts=1604
%%%mzn-stat: circuitNumber2PropagationsThatPruned=1402
%%%mzn-stat: circuitNumber2PropagationsTotal=12359
%%%mzn-stat: AverageConflictSize=19.13841059602649
%%%mzn-stat: NumUnitNogoodsLearned=0
%%%mzn-stat: AverageLearnedNogoodLength=24.232119205298012
%%%mzn-stat: AverageBacktrackAmount=0
%%%mzn-stat: AverageLbd=20.014569536423842
%%%mzn-stat: 2AutonomousSearchNumBackupCalled=4071
%%%mzn-stat: 2AutonomousSearchNumPredicatesRemoved=0
%%%mzn-stat: 2AutonomousSearchNumCalls=4083
%%%mzn-stat: 2AutonomousSearchNumPredicatesAdded=5931
%%%mzn-stat: 2AutonomousSearchAverageSizeOfHeap=4.096987509184423
%%%mzn-stat: 2AutonomousSearchNumAssignedPredicatesEncountered=16728
%%%mzn-stat-end
maxleg = 273;
succ = array1d(1..50,[34, 4, 6, 10, 13, 5, 3, 26, 7, 14, 21, 28, 16, 27, 17, 19, 18, 35, 25, 22, 23, 29, 40, 15, 30, 11, 33, 39, 38, 31, 46, 8, 41, 24, 49, 48, 50, 37, 20, 42, 32, 44, 36, 47, 1, 43, 9, 45, 12, 2]);
% time elapsed: 8.36 s
----------
%%%mzn-stat: initTime=0.02652177
%%%mzn-stat: objective=272
%%%mzn-stat: nodes=14351
%%%mzn-stat: restarts=0
%%%mzn-stat: peakDepth=410
%%%mzn-stat: solveTime=0.64295721
%%%mzn-stat: variables=806
%%%mzn-stat: propagators=567
%%%mzn-stat: failures=3039
%%%mzn-stat: propagations=131321
%%%mzn-stat: nogoods=3039
%%%mzn-stat: numAtomicConstraintsPropagated=0
%%%mzn-stat: allDifferentNumber1TotalHallSetSize=5198
%%%mzn-stat: allDifferentNumber1NumberOfConflicts=1398
%%%mzn-stat: allDifferentNumber1MaxHallSetSize=42
%%%mzn-stat: allDifferentNumber1PropagationsTotal=18683
%%%mzn-stat: allDifferentNumber1PropagationsThatFoundConflict=1398
%%%mzn-stat: circuitNumber2PropagationsThatFoundConflict=1605
%%%mzn-stat: circuitNumber2TotalFixedEdgesAtConflict=76537
%%%mzn-stat: circuitNumber2NumberOfConflicts=1605
%%%mzn-stat: circuitNumber2PropagationsThatPruned=1413
%%%mzn-stat: circuitNumber2PropagationsTotal=12469
%%%mzn-stat: AverageConflictSize=19.086870681145115
%%%mzn-stat: NumUnitNogoodsLearned=0
%%%mzn-stat: AverageLearnedNogoodLength=24.153998025666336
%%%mzn-stat: AverageBacktrackAmount=0
%%%mzn-stat: AverageLbd=19.94142810134913
%%%mzn-stat: 2AutonomousSearchNumBackupCalled=4379
%%%mzn-stat: 2AutonomousSearchNumPredicatesRemoved=0
%%%mzn-stat: 2AutonomousSearchNumCalls=4392
%%%mzn-stat: 2AutonomousSearchNumPredicatesAdded=6188
%%%mzn-stat: 2AutonomousSearchAverageSizeOfHeap=4.200136612021858
%%%mzn-stat: 2AutonomousSearchNumAssignedPredicatesEncountered=18447
%%%mzn-stat-end
maxleg = 272;
succ = array1d(1..50,[34, 4, 6, 10, 13, 5, 3, 26, 7, 14, 21, 28, 16, 27, 17, 19, 18, 35, 25, 22, 23, 29, 40, 15, 30, 11, 33, 49, 39, 31, 46, 8, 41, 24, 20, 48, 50, 37, 12, 42, 32, 44, 36, 47, 1, 43, 9, 45, 38, 2]);
% time elapsed: 8.37 s
----------
%%%mzn-stat: initTime=0.02652177
%%%mzn-stat: objective=271
%%%mzn-stat: nodes=14949
%%%mzn-stat: restarts=0
%%%mzn-stat: peakDepth=410
%%%mzn-stat: solveTime=0.663526015
%%%mzn-stat: variables=806
%%%mzn-stat: propagators=567
%%%mzn-stat: failures=3133
%%%mzn-stat: propagations=135222
%%%mzn-stat: nogoods=3133
%%%mzn-stat: numAtomicConstraintsPropagated=0
%%%mzn-stat: allDifferentNumber1TotalHallSetSize=6311
%%%mzn-stat: allDifferentNumber1NumberOfConflicts=1487
%%%mzn-stat: allDifferentNumber1MaxHallSetSize=42
%%%mzn-stat: allDifferentNumber1PropagationsTotal=19169
%%%mzn-stat: allDifferentNumber1PropagationsThatFoundConflict=1487
%%%mzn-stat: circuitNumber2PropagationsThatFoundConflict=1605
%%%mzn-stat: circuitNumber2TotalFixedEdgesAtConflict=76537
%%%mzn-stat: circuitNumber2NumberOfConflicts=1605
%%%mzn-stat: circuitNumber2PropagationsThatPruned=1429
%%%mzn-stat: circuitNumber2PropagationsTotal=12746
%%%mzn-stat: AverageConflictSize=19.28056176188956
%%%mzn-stat: NumUnitNogoodsLearned=0
%%%mzn-stat: AverageLearnedNogoodLength=24.434727098627512
%%%mzn-stat: AverageBacktrackAmount=0
%%%mzn-stat: AverageLbd=19.772741781040537
%%%mzn-stat: 2AutonomousSearchNumBackupCalled=4694
%%%mzn-stat: 2AutonomousSearchNumPredicatesRemoved=0
%%%mzn-stat: 2AutonomousSearchNumCalls=4708
%%%mzn-stat: 2AutonomousSearchNumPredicatesAdded=6773
%%%mzn-stat: 2AutonomousSearchAverageSizeOfHeap=4.305862361937129
%%%mzn-stat: 2AutonomousSearchNumAssignedPredicatesEncountered=20272
%%%mzn-stat-end
maxleg = 271;
succ = array1d(1..50,[34, 4, 6, 10, 13, 5, 3, 26, 7, 14, 21, 28, 16, 27, 17, 19, 18, 35, 25, 22, 23, 30, 40, 15, 31, 11, 33, 49, 38, 32, 46, 8, 41, 24, 29, 48, 50, 37, 12, 42, 39, 44, 36, 47, 1, 43, 9, 45, 20, 2]);
% time elapsed: 8.40 s
----------
%%%mzn-stat: initTime=0.02652177
%%%mzn-stat: objective=266
%%%mzn-stat: nodes=15345
%%%mzn-stat: restarts=0
%%%mzn-stat: peakDepth=410
%%%mzn-stat: solveTime=0.666839822
%%%mzn-stat: variables=806
%%%mzn-stat: propagators=567
%%%mzn-stat: failures=3140
%%%mzn-stat: propagations=136817
%%%mzn-stat: nogoods=3140
%%%mzn-stat: numAtomicConstraintsPropagated=0
%%%mzn-stat: allDifferentNumber1TotalHallSetSize=6326
%%%mzn-stat: allDifferentNumber1NumberOfConflicts=1494
%%%mzn-stat: allDifferentNumber1MaxHallSetSize=42
%%%mzn-stat: allDifferentNumber1PropagationsTotal=19293
%%%mzn-stat: allDifferentNumber1PropagationsThatFoundConflict=1494
%%%mzn-stat: circuitNumber2PropagationsThatFoundConflict=1605
%%%mzn-stat: circuitNumber2TotalFixedEdgesAtConflict=76537
%%%mzn-stat: circuitNumber2NumberOfConflicts=1605
%%%mzn-stat: circuitNumber2PropagationsThatPruned=1434
%%%mzn-stat: circuitNumber2PropagationsTotal=12835
%%%mzn-stat: AverageConflictSize=19.244904458598725
%%%mzn-stat: NumUnitNogoodsLearned=0
%%%mzn-stat: AverageLearnedNogoodLength=24.397770700636944
%%%mzn-stat: AverageBacktrackAmount=0
%%%mzn-stat: AverageLbd=19.737898089171974
%%%mzn-stat: 2AutonomousSearchNumBackupCalled=5016
%%%mzn-stat: 2AutonomousSearchNumPredicatesRemoved=0
%%%mzn-stat: 2AutonomousSearchNumCalls=5031
%%%mzn-stat: 2AutonomousSearchNumPredicatesAdded=6893
%%%mzn-stat: 2AutonomousSearchAverageSizeOfHeap=4.392367322599881
%%%mzn-stat: 2AutonomousSearchNumAssignedPredicatesEncountered=22098
%%%mzn-stat-end
maxleg = 266;
succ = array1d(1..50,[34, 4, 6, 10, 13, 5, 3, 26, 7, 14, 21, 28, 16, 27, 17, 19, 18, 35, 25, 22, 23, 30, 40, 15, 31, 11, 33, 49, 38, 32, 46, 8, 41, 45, 29, 48, 50, 37, 12, 42, 39, 44, 36, 47, 24, 43, 9, 1, 20, 2]);
% time elapsed: 8.40 s
----------
==========
% time elapsed: 144.95 s
%%%mzn-stat: initTime=0.02652177
%%%mzn-stat: objective=266
%%%mzn-stat: nodes=542304
%%%mzn-stat: restarts=0
%%%mzn-stat: peakDepth=410
%%%mzn-stat: solveTime=137.222883882
%%%mzn-stat: variables=806
%%%mzn-stat: propagators=567
%%%mzn-stat: failures=398108
%%%mzn-stat: propagations=12176623
%%%mzn-stat: nogoods=398108
%%%mzn-stat: numAtomicConstraintsPropagated=0
%%%mzn-stat: allDifferentNumber1TotalHallSetSize=869826
%%%mzn-stat: allDifferentNumber1NumberOfConflicts=223935
%%%mzn-stat: allDifferentNumber1MaxHallSetSize=49
%%%mzn-stat: allDifferentNumber1PropagationsTotal=1466136
%%%mzn-stat: allDifferentNumber1PropagationsThatFoundConflict=223935
%%%mzn-stat: circuitNumber2PropagationsThatFoundConflict=160386
%%%mzn-stat: circuitNumber2TotalFixedEdgesAtConflict=7652348
%%%mzn-stat: circuitNumber2NumberOfConflicts=160386
%%%mzn-stat: circuitNumber2PropagationsThatPruned=164912
%%%mzn-stat: circuitNumber2PropagationsTotal=887626
%%%mzn-stat: AverageConflictSize=21.50596822972661
%%%mzn-stat: NumUnitNogoodsLearned=1
%%%mzn-stat: AverageLearnedNogoodLength=43.661868136284625
%%%mzn-stat: AverageBacktrackAmount=0
%%%mzn-stat: AverageLbd=26.413325027379503
%%%mzn-stat: 2AutonomousSearchNumBackupCalled=5016
%%%mzn-stat: 2AutonomousSearchNumPredicatesRemoved=0
%%%mzn-stat: 2AutonomousSearchNumCalls=5031
%%%mzn-stat: 2AutonomousSearchNumPredicatesAdded=9036
%%%mzn-stat: 2AutonomousSearchAverageSizeOfHeap=4.392367322599881
%%%mzn-stat: 2AutonomousSearchNumAssignedPredicatesEncountered=22098
%%%mzn-stat-end
